Using license file /home/anupa/gurobi.lic
Academic license - for non-commercial use only

Gurobi Optimizer version 9.0.0 build v9.0.0rc2 (linux64)
Optimize a model with 29 rows, 38 columns and 82 nonzeros
Model fingerprint: 0xaa60b4dd
Model has 4 general constraints
Variable types: 38 continuous, 0 integer (0 binary)
Coefficient statistics:
  Matrix range     [1e+00, 3e+04]
  Objective range  [1e+00, 1e+00]
  Bounds range     [1e+00, 3e+04]
  RHS range        [1e+00, 5e+01]

---------------------------------------------------------------------------
Multi-objectives: starting optimization with 8 objectives ... 
---------------------------------------------------------------------------

Multi-objectives: applying initial presolve ...
---------------------------------------------------------------------------

Presolve added 6 rows and 8 columns
Presolve time: 0.00s
Presolved: 35 rows and 46 columns
---------------------------------------------------------------------------

Multi-objectives: optimize objective 1 (tot_rows_cpu) ...
---------------------------------------------------------------------------

Presolve removed 17 rows and 17 columns
Presolve time: 0.00s
Presolved: 18 rows, 29 columns, 66 nonzeros
Presolved model has 2 SOS constraint(s)
Variable types: 24 continuous, 5 integer (5 binary)
Found heuristic solution: objective 2.9223867

Root relaxation: cutoff, 13 iterations, 0.00 seconds

    Nodes    |    Current Node    |     Objective Bounds      |     Work
 Expl Unexpl |  Obj  Depth IntInf | Incumbent    BestBd   Gap | It/Node Time

     0     0     cutoff    0         2.92239    2.92239  0.00%     -    0s

Explored 0 nodes (13 simplex iterations) in 0.00 seconds
Thread count was 12 (of 12 available processors)

Solution count 1: 2.92239 

Optimal solution found (tolerance 1.00e-04)
Best objective 2.922386654073e+00, best bound 2.922386654073e+00, gap 0.0000%
---------------------------------------------------------------------------

Multi-objectives: optimize objective 2 (cpu_rows_load) ...
---------------------------------------------------------------------------


Loaded user MIP start with objective 1.46119

Presolve removed 17 rows and 17 columns
Presolve time: 0.00s
Presolved: 19 rows, 29 columns, 71 nonzeros
Presolved model has 2 SOS constraint(s)
Variable types: 24 continuous, 5 integer (5 binary)

Root relaxation: cutoff, 17 iterations, 0.00 seconds

    Nodes    |    Current Node    |     Objective Bounds      |     Work
 Expl Unexpl |  Obj  Depth IntInf | Incumbent    BestBd   Gap | It/Node Time

     0     0     cutoff    0         1.46119    1.46119  0.00%     -    0s

Explored 0 nodes (17 simplex iterations) in 0.00 seconds
Thread count was 12 (of 12 available processors)

Solution count 1: 1.46119 

Optimal solution found (tolerance 1.00e-04)
Best objective 1.461193327036e+00, best bound 1.461193327036e+00, gap 0.0000%
---------------------------------------------------------------------------

Multi-objectives: optimize objective 3 (tot_rows_p4) ...
---------------------------------------------------------------------------


Loaded user MIP start with objective 7.07761

Presolve removed 17 rows and 17 columns
Presolve time: 0.00s
Presolved: 20 rows, 29 columns, 75 nonzeros
Presolved model has 2 SOS constraint(s)
Variable types: 24 continuous, 5 integer (5 binary)

Root relaxation: objective 7.077320e+00, 20 iterations, 0.00 seconds

    Nodes    |    Current Node    |     Objective Bounds      |     Work
 Expl Unexpl |  Obj  Depth IntInf | Incumbent    BestBd   Gap | It/Node Time

     0     0    7.07732    0    2    7.07761    7.07732  0.00%     -    0s

Explored 0 nodes (20 simplex iterations) in 0.00 seconds
Thread count was 12 (of 12 available processors)

Solution count 1: 7.07761 

Optimal solution found (tolerance 1.00e-04)
Best objective 7.077613345927e+00, best bound 7.077320107262e+00, gap 0.0041%
---------------------------------------------------------------------------

Multi-objectives: optimize objective 4 (p4_rows_load) ...
---------------------------------------------------------------------------


Loaded user MIP start with objective 3.53881

Presolve removed 17 rows and 17 columns
Presolve time: 0.00s
Presolved: 21 rows, 29 columns, 80 nonzeros
Presolved model has 2 SOS constraint(s)
Variable types: 24 continuous, 5 integer (5 binary)

Root relaxation: objective 3.538660e+00, 19 iterations, 0.00 seconds

    Nodes    |    Current Node    |     Objective Bounds      |     Work
 Expl Unexpl |  Obj  Depth IntInf | Incumbent    BestBd   Gap | It/Node Time

     0     0    3.53866    0    1    3.53881    3.53866  0.00%     -    0s

Explored 0 nodes (19 simplex iterations) in 0.00 seconds
Thread count was 12 (of 12 available processors)

Solution count 1: 3.53881 

Optimal solution found (tolerance 1.00e-04)
Best objective 3.538806672964e+00, best bound 3.538660053631e+00, gap 0.0041%
---------------------------------------------------------------------------

Multi-objectives: optimize objective 5 (tot_mem_cpu) ...
---------------------------------------------------------------------------


Loaded user MIP start with objective 24824.6

Presolve removed 17 rows and 17 columns
Presolve time: 0.00s
Presolved: 22 rows, 29 columns, 84 nonzeros
Presolved model has 2 SOS constraint(s)
Variable types: 24 continuous, 5 integer (5 binary)

Root relaxation: objective 2.482460e+04, 23 iterations, 0.00 seconds

    Nodes    |    Current Node    |     Objective Bounds      |     Work
 Expl Unexpl |  Obj  Depth IntInf | Incumbent    BestBd   Gap | It/Node Time

*    0     0               0    24824.601562 24824.6016  0.00%     -    0s

Explored 0 nodes (23 simplex iterations) in 0.01 seconds
Thread count was 12 (of 12 available processors)

Solution count 2: 24824.6 24824.6 

Optimal solution found (tolerance 1.00e-04)
Best objective 2.482460156250e+04, best bound 2.482460156250e+04, gap 0.0000%
---------------------------------------------------------------------------

Multi-objectives: optimize objective 6 (cpu_load_mem) ...
---------------------------------------------------------------------------


Loaded user MIP start with objective 12412.3

Presolve removed 14 rows and 16 columns
Presolve time: 0.00s
Presolved: 26 rows, 30 columns, 93 nonzeros
Variable types: 23 continuous, 7 integer (7 binary)

Root relaxation: cutoff, 10 iterations, 0.00 seconds

    Nodes    |    Current Node    |     Objective Bounds      |     Work
 Expl Unexpl |  Obj  Depth IntInf | Incumbent    BestBd   Gap | It/Node Time

     0     0     cutoff    0      12412.3008 12412.3008  0.00%     -    0s

Explored 0 nodes (10 simplex iterations) in 0.01 seconds
Thread count was 12 (of 12 available processors)

Solution count 1: 12412.3 

Optimal solution found (tolerance 1.00e-04)
Best objective 1.241230078125e+04, best bound 1.241230078125e+04, gap 0.0000%
---------------------------------------------------------------------------

Multi-objectives: optimize objective 7 (tot_mem_p4) ...
---------------------------------------------------------------------------


Loaded user MIP start with objective 1152

Presolve removed 16 rows and 18 columns
Presolve time: 0.00s
Presolved: 25 rows, 28 columns, 90 nonzeros
Variable types: 24 continuous, 4 integer (4 binary)

Root relaxation: objective 1.149518e+03, 16 iterations, 0.00 seconds

    Nodes    |    Current Node    |     Objective Bounds      |     Work
 Expl Unexpl |  Obj  Depth IntInf | Incumbent    BestBd   Gap | It/Node Time

*    0     0               0    1149.5175378 1149.51754  0.00%     -    0s

Explored 0 nodes (16 simplex iterations) in 0.01 seconds
Thread count was 12 (of 12 available processors)

Solution count 2: 1149.52 1152 

Optimal solution found (tolerance 1.00e-04)
Warning: max constraint violation (1.0000e-06) exceeds tolerance
Best objective 1.149517537844e+03, best bound 1.149517537844e+03, gap 0.0000%
---------------------------------------------------------------------------

Multi-objectives: optimize objective 8 (p4_load_mem) ...
---------------------------------------------------------------------------


Loaded user MIP start with objective 576

Presolve removed 16 rows and 18 columns
Presolve time: 0.00s
Presolved: 26 rows, 28 columns, 92 nonzeros
Variable types: 24 continuous, 4 integer (4 binary)

Root relaxation: objective 5.747588e+02, 19 iterations, 0.00 seconds

    Nodes    |    Current Node    |     Objective Bounds      |     Work
 Expl Unexpl |  Obj  Depth IntInf | Incumbent    BestBd   Gap | It/Node Time

*    0     0               0     574.7587689  574.75877  0.00%     -    0s

Explored 0 nodes (19 simplex iterations) in 0.01 seconds
Thread count was 12 (of 12 available processors)

Solution count 2: 574.759 576 

Optimal solution found (tolerance 1.00e-04)
Warning: max constraint violation (1.0000e-06) exceeds tolerance
Best objective 5.747587689219e+02, best bound 5.747587689219e+02, gap 0.0000%

---------------------------------------------------------------------------
Multi-objectives: solved in 0.01 seconds, solution count 4

--------------------------------------------------
Model update took: 4.38690185546875e-05 seconds
Model optimize took: 0.008177518844604492 seconds
--------------------------------------------------

Solution quality statistics for model netmon :
  Maximum violation:
    Bound       : 0.00000000e+00
    Constraint  : 1.99840144e-15 (rows_tot_cpu_1)
    Integrality : 0.00000000e+00

Sketch (0) (cm: eps0: 7.500000000000001e-05, del0: 0.05, min_mem: 141.578125)
Par: 1, Rows: 3
0.000    0.000    1.000    0.000    
Total frac: 1.000

Sketch (1) (cm: eps0: 1.25e-06, del0: 0.05, min_mem: 8494.6328125)
Par: 1, Rows: 3
0.487    0.487    0.006    0.020    
Total frac: 1.000

Sketch (2) (cm: eps0: 0.000625, del0: 0.025, min_mem: 16.9921875)
Par: 1, Rows: 4
0.000    0.000    0.131    0.869    
Total frac: 1.000

Device (0) cpu_1:
Rows total: 1.461340446369169
Mem total: 12413.542012328126

Device (1) cpu_2:
Rows total: 1.4613394464868903
Mem total: 12413.542012328126

Device (2) p4_1:
Rows total: 3.539014934298145
Mem total: 574.7587689218748

Device (3) p4_2:
Rows total: 3.5383051728457975
Mem total: 574.7587689218748
--------------------------------------------------
Changed value of parameter NonConvex to 2
   Prev: -1  Min: -1  Max: 2  Default: -1
Changed value of parameter NonConvex to 2
   Prev: -1  Min: -1  Max: 2  Default: -1

Throughput: 87.49999999999999 Mpps, ns per packet: 11.42857142857143
Resources: 168.7482619705509

Sketch (0) (cm: eps0: 7.500000000000001e-05, del0: 0.05, min_mem: 141.578125)
Par: 1, Rows: 3
0.000    0.000    1.000    0.000    
Total frac: 1.000

Sketch (1) (cm: eps0: 1.25e-06, del0: 0.05, min_mem: 8494.6328125)
Par: 1, Rows: 3
0.487    0.487    0.006    0.020    
Total frac: 1.000

Sketch (2) (cm: eps0: 0.000625, del0: 0.025, min_mem: 16.9921875)
Par: 1, Rows: 4
0.000    0.000    0.131    0.869    
Total frac: 1.000

Device (0) cpu_1:
cores_sketch: 2.0, cores_dpdk: 4.9999999999999964
Rows total: 1.461340446369169
Mem total: 12413.542012328126
Throughput: 87.49999999999999

Device (1) cpu_2:
cores_sketch: 1.9999999999999998, cores_dpdk: 4.9999999999999964
Rows total: 1.4613394464868903
Mem total: 12413.542012328126
Throughput: 87.49999999999999

Device (2) p4_1:
Rows total: 3.539014934298145
Mem total: 574.7587689218748
Throughput: 148.0

Device (3) p4_2:
Rows total: 3.5383051728457975
Mem total: 574.7587689218748
Throughput: 148.0
--------------------------------------------------
